(declare-const a Real)
(declare-const b Real)
(declare-const c Real)
(assert (= (* a b c) 1))
(assert (> a 0))
(assert (> b 0))
(assert (> c 0))
(assert (not (<= (+ (* -447862024 (pow b 4)) (* -342480136 (pow a 4)) (* -905969664 (pow a (pow 3 -1)) (pow b (/ 11 3))) (* -452984832 (pow a (/ 10 3)) (pow b (/ 2 3))) (* 512535520 b (pow a 3)) (* 1629268960 a (pow b 3)) (* 3746088 a b (+ (pow a 2) (pow b 2)))) 0)))
(check-sat)
(get-model)
(exit)